c description: Graph 5-Colorability of graph: 
c generator: CNFgen (0.9.0)
c copyright: (C) 2012-2020 Massimo Lauria <massimo.lauria@uniroma1.it>
c url: https://massimolauria.net/cnfgen
c
p cnf 250 1300
1 2 3 4 5 0
-1 -2 0
-1 -3 0
-1 -4 0
-1 -5 0
-2 -3 0
-2 -4 0
-2 -5 0
-3 -4 0
-3 -5 0
-4 -5 0
6 7 8 9 10 0
-6 -7 0
-6 -8 0
-6 -9 0
-6 -10 0
-7 -8 0
-7 -9 0
-7 -10 0
-8 -9 0
-8 -10 0
-9 -10 0
11 12 13 14 15 0
-11 -12 0
-11 -13 0
-11 -14 0
-11 -15 0
-12 -13 0
-12 -14 0
-12 -15 0
-13 -14 0
-13 -15 0
-14 -15 0
16 17 18 19 20 0
-16 -17 0
-16 -18 0
-16 -19 0
-16 -20 0
-17 -18 0
-17 -19 0
-17 -20 0
-18 -19 0
-18 -20 0
-19 -20 0
21 22 23 24 25 0
-21 -22 0
-21 -23 0
-21 -24 0
-21 -25 0
-22 -23 0
-22 -24 0
-22 -25 0
-23 -24 0
-23 -25 0
-24 -25 0
26 27 28 29 30 0
-26 -27 0
-26 -28 0
-26 -29 0
-26 -30 0
-27 -28 0
-27 -29 0
-27 -30 0
-28 -29 0
-28 -30 0
-29 -30 0
31 32 33 34 35 0
-31 -32 0
-31 -33 0
-31 -34 0
-31 -35 0
-32 -33 0
-32 -34 0
-32 -35 0
-33 -34 0
-33 -35 0
-34 -35 0
36 37 38 39 40 0
-36 -37 0
-36 -38 0
-36 -39 0
-36 -40 0
-37 -38 0
-37 -39 0
-37 -40 0
-38 -39 0
-38 -40 0
-39 -40 0
41 42 43 44 45 0
-41 -42 0
-41 -43 0
-41 -44 0
-41 -45 0
-42 -43 0
-42 -44 0
-42 -45 0
-43 -44 0
-43 -45 0
-44 -45 0
46 47 48 49 50 0
-46 -47 0
-46 -48 0
-46 -49 0
-46 -50 0
-47 -48 0
-47 -49 0
-47 -50 0
-48 -49 0
-48 -50 0
-49 -50 0
51 52 53 54 55 0
-51 -52 0
-51 -53 0
-51 -54 0
-51 -55 0
-52 -53 0
-52 -54 0
-52 -55 0
-53 -54 0
-53 -55 0
-54 -55 0
56 57 58 59 60 0
-56 -57 0
-56 -58 0
-56 -59 0
-56 -60 0
-57 -58 0
-57 -59 0
-57 -60 0
-58 -59 0
-58 -60 0
-59 -60 0
61 62 63 64 65 0
-61 -62 0
-61 -63 0
-61 -64 0
-61 -65 0
-62 -63 0
-62 -64 0
-62 -65 0
-63 -64 0
-63 -65 0
-64 -65 0
66 67 68 69 70 0
-66 -67 0
-66 -68 0
-66 -69 0
-66 -70 0
-67 -68 0
-67 -69 0
-67 -70 0
-68 -69 0
-68 -70 0
-69 -70 0
71 72 73 74 75 0
-71 -72 0
-71 -73 0
-71 -74 0
-71 -75 0
-72 -73 0
-72 -74 0
-72 -75 0
-73 -74 0
-73 -75 0
-74 -75 0
76 77 78 79 80 0
-76 -77 0
-76 -78 0
-76 -79 0
-76 -80 0
-77 -78 0
-77 -79 0
-77 -80 0
-78 -79 0
-78 -80 0
-79 -80 0
81 82 83 84 85 0
-81 -82 0
-81 -83 0
-81 -84 0
-81 -85 0
-82 -83 0
-82 -84 0
-82 -85 0
-83 -84 0
-83 -85 0
-84 -85 0
86 87 88 89 90 0
-86 -87 0
-86 -88 0
-86 -89 0
-86 -90 0
-87 -88 0
-87 -89 0
-87 -90 0
-88 -89 0
-88 -90 0
-89 -90 0
91 92 93 94 95 0
-91 -92 0
-91 -93 0
-91 -94 0
-91 -95 0
-92 -93 0
-92 -94 0
-92 -95 0
-93 -94 0
-93 -95 0
-94 -95 0
96 97 98 99 100 0
-96 -97 0
-96 -98 0
-96 -99 0
-96 -100 0
-97 -98 0
-97 -99 0
-97 -100 0
-98 -99 0
-98 -100 0
-99 -100 0
101 102 103 104 105 0
-101 -102 0
-101 -103 0
-101 -104 0
-101 -105 0
-102 -103 0
-102 -104 0
-102 -105 0
-103 -104 0
-103 -105 0
-104 -105 0
106 107 108 109 110 0
-106 -107 0
-106 -108 0
-106 -109 0
-106 -110 0
-107 -108 0
-107 -109 0
-107 -110 0
-108 -109 0
-108 -110 0
-109 -110 0
111 112 113 114 115 0
-111 -112 0
-111 -113 0
-111 -114 0
-111 -115 0
-112 -113 0
-112 -114 0
-112 -115 0
-113 -114 0
-113 -115 0
-114 -115 0
116 117 118 119 120 0
-116 -117 0
-116 -118 0
-116 -119 0
-116 -120 0
-117 -118 0
-117 -119 0
-117 -120 0
-118 -119 0
-118 -120 0
-119 -120 0
121 122 123 124 125 0
-121 -122 0
-121 -123 0
-121 -124 0
-121 -125 0
-122 -123 0
-122 -124 0
-122 -125 0
-123 -124 0
-123 -125 0
-124 -125 0
126 127 128 129 130 0
-126 -127 0
-126 -128 0
-126 -129 0
-126 -130 0
-127 -128 0
-127 -129 0
-127 -130 0
-128 -129 0
-128 -130 0
-129 -130 0
131 132 133 134 135 0
-131 -132 0
-131 -133 0
-131 -134 0
-131 -135 0
-132 -133 0
-132 -134 0
-132 -135 0
-133 -134 0
-133 -135 0
-134 -135 0
136 137 138 139 140 0
-136 -137 0
-136 -138 0
-136 -139 0
-136 -140 0
-137 -138 0
-137 -139 0
-137 -140 0
-138 -139 0
-138 -140 0
-139 -140 0
141 142 143 144 145 0
-141 -142 0
-141 -143 0
-141 -144 0
-141 -145 0
-142 -143 0
-142 -144 0
-142 -145 0
-143 -144 0
-143 -145 0
-144 -145 0
146 147 148 149 150 0
-146 -147 0
-146 -148 0
-146 -149 0
-146 -150 0
-147 -148 0
-147 -149 0
-147 -150 0
-148 -149 0
-148 -150 0
-149 -150 0
151 152 153 154 155 0
-151 -152 0
-151 -153 0
-151 -154 0
-151 -155 0
-152 -153 0
-152 -154 0
-152 -155 0
-153 -154 0
-153 -155 0
-154 -155 0
156 157 158 159 160 0
-156 -157 0
-156 -158 0
-156 -159 0
-156 -160 0
-157 -158 0
-157 -159 0
-157 -160 0
-158 -159 0
-158 -160 0
-159 -160 0
161 162 163 164 165 0
-161 -162 0
-161 -163 0
-161 -164 0
-161 -165 0
-162 -163 0
-162 -164 0
-162 -165 0
-163 -164 0
-163 -165 0
-164 -165 0
166 167 168 169 170 0
-166 -167 0
-166 -168 0
-166 -169 0
-166 -170 0
-167 -168 0
-167 -169 0
-167 -170 0
-168 -169 0
-168 -170 0
-169 -170 0
171 172 173 174 175 0
-171 -172 0
-171 -173 0
-171 -174 0
-171 -175 0
-172 -173 0
-172 -174 0
-172 -175 0
-173 -174 0
-173 -175 0
-174 -175 0
176 177 178 179 180 0
-176 -177 0
-176 -178 0
-176 -179 0
-176 -180 0
-177 -178 0
-177 -179 0
-177 -180 0
-178 -179 0
-178 -180 0
-179 -180 0
181 182 183 184 185 0
-181 -182 0
-181 -183 0
-181 -184 0
-181 -185 0
-182 -183 0
-182 -184 0
-182 -185 0
-183 -184 0
-183 -185 0
-184 -185 0
186 187 188 189 190 0
-186 -187 0
-186 -188 0
-186 -189 0
-186 -190 0
-187 -188 0
-187 -189 0
-187 -190 0
-188 -189 0
-188 -190 0
-189 -190 0
191 192 193 194 195 0
-191 -192 0
-191 -193 0
-191 -194 0
-191 -195 0
-192 -193 0
-192 -194 0
-192 -195 0
-193 -194 0
-193 -195 0
-194 -195 0
196 197 198 199 200 0
-196 -197 0
-196 -198 0
-196 -199 0
-196 -200 0
-197 -198 0
-197 -199 0
-197 -200 0
-198 -199 0
-198 -200 0
-199 -200 0
201 202 203 204 205 0
-201 -202 0
-201 -203 0
-201 -204 0
-201 -205 0
-202 -203 0
-202 -204 0
-202 -205 0
-203 -204 0
-203 -205 0
-204 -205 0
206 207 208 209 210 0
-206 -207 0
-206 -208 0
-206 -209 0
-206 -210 0
-207 -208 0
-207 -209 0
-207 -210 0
-208 -209 0
-208 -210 0
-209 -210 0
211 212 213 214 215 0
-211 -212 0
-211 -213 0
-211 -214 0
-211 -215 0
-212 -213 0
-212 -214 0
-212 -215 0
-213 -214 0
-213 -215 0
-214 -215 0
216 217 218 219 220 0
-216 -217 0
-216 -218 0
-216 -219 0
-216 -220 0
-217 -218 0
-217 -219 0
-217 -220 0
-218 -219 0
-218 -220 0
-219 -220 0
221 222 223 224 225 0
-221 -222 0
-221 -223 0
-221 -224 0
-221 -225 0
-222 -223 0
-222 -224 0
-222 -225 0
-223 -224 0
-223 -225 0
-224 -225 0
226 227 228 229 230 0
-226 -227 0
-226 -228 0
-226 -229 0
-226 -230 0
-227 -228 0
-227 -229 0
-227 -230 0
-228 -229 0
-228 -230 0
-229 -230 0
231 232 233 234 235 0
-231 -232 0
-231 -233 0
-231 -234 0
-231 -235 0
-232 -233 0
-232 -234 0
-232 -235 0
-233 -234 0
-233 -235 0
-234 -235 0
236 237 238 239 240 0
-236 -237 0
-236 -238 0
-236 -239 0
-236 -240 0
-237 -238 0
-237 -239 0
-237 -240 0
-238 -239 0
-238 -240 0
-239 -240 0
241 242 243 244 245 0
-241 -242 0
-241 -243 0
-241 -244 0
-241 -245 0
-242 -243 0
-242 -244 0
-242 -245 0
-243 -244 0
-243 -245 0
-244 -245 0
246 247 248 249 250 0
-246 -247 0
-246 -248 0
-246 -249 0
-246 -250 0
-247 -248 0
-247 -249 0
-247 -250 0
-248 -249 0
-248 -250 0
-249 -250 0
-1 -41 0
-2 -42 0
-3 -43 0
-4 -44 0
-5 -45 0
-1 -86 0
-2 -87 0
-3 -88 0
-4 -89 0
-5 -90 0
-1 -161 0
-2 -162 0
-3 -163 0
-4 -164 0
-5 -165 0
-1 -181 0
-2 -182 0
-3 -183 0
-4 -184 0
-5 -185 0
-1 -206 0
-2 -207 0
-3 -208 0
-4 -209 0
-5 -210 0
-1 -221 0
-2 -222 0
-3 -223 0
-4 -224 0
-5 -225 0
-6 -21 0
-7 -22 0
-8 -23 0
-9 -24 0
-10 -25 0
-6 -51 0
-7 -52 0
-8 -53 0
-9 -54 0
-10 -55 0
-6 -101 0
-7 -102 0
-8 -103 0
-9 -104 0
-10 -105 0
-6 -111 0
-7 -112 0
-8 -113 0
-9 -114 0
-10 -115 0
-6 -126 0
-7 -127 0
-8 -128 0
-9 -129 0
-10 -130 0
-6 -196 0
-7 -197 0
-8 -198 0
-9 -199 0
-10 -200 0
-6 -201 0
-7 -202 0
-8 -203 0
-9 -204 0
-10 -205 0
-6 -211 0
-7 -212 0
-8 -213 0
-9 -214 0
-10 -215 0
-11 -51 0
-12 -52 0
-13 -53 0
-14 -54 0
-15 -55 0
-11 -76 0
-12 -77 0
-13 -78 0
-14 -79 0
-15 -80 0
-11 -81 0
-12 -82 0
-13 -83 0
-14 -84 0
-15 -85 0
-11 -111 0
-12 -112 0
-13 -113 0
-14 -114 0
-15 -115 0
-11 -126 0
-12 -127 0
-13 -128 0
-14 -129 0
-15 -130 0
-11 -146 0
-12 -147 0
-13 -148 0
-14 -149 0
-15 -150 0
-11 -201 0
-12 -202 0
-13 -203 0
-14 -204 0
-15 -205 0
-11 -221 0
-12 -222 0
-13 -223 0
-14 -224 0
-15 -225 0
-11 -231 0
-12 -232 0
-13 -233 0
-14 -234 0
-15 -235 0
-11 -236 0
-12 -237 0
-13 -238 0
-14 -239 0
-15 -240 0
-16 -96 0
-17 -97 0
-18 -98 0
-19 -99 0
-20 -100 0
-16 -111 0
-17 -112 0
-18 -113 0
-19 -114 0
-20 -115 0
-16 -181 0
-17 -182 0
-18 -183 0
-19 -184 0
-20 -185 0
-16 -246 0
-17 -247 0
-18 -248 0
-19 -249 0
-20 -250 0
-21 -121 0
-22 -122 0
-23 -123 0
-24 -124 0
-25 -125 0
-21 -201 0
-22 -202 0
-23 -203 0
-24 -204 0
-25 -205 0
-21 -246 0
-22 -247 0
-23 -248 0
-24 -249 0
-25 -250 0
-26 -81 0
-27 -82 0
-28 -83 0
-29 -84 0
-30 -85 0
-26 -91 0
-27 -92 0
-28 -93 0
-29 -94 0
-30 -95 0
-26 -116 0
-27 -117 0
-28 -118 0
-29 -119 0
-30 -120 0
-26 -146 0
-27 -147 0
-28 -148 0
-29 -149 0
-30 -150 0
-26 -186 0
-27 -187 0
-28 -188 0
-29 -189 0
-30 -190 0
-26 -196 0
-27 -197 0
-28 -198 0
-29 -199 0
-30 -200 0
-31 -36 0
-32 -37 0
-33 -38 0
-34 -39 0
-35 -40 0
-31 -81 0
-32 -82 0
-33 -83 0
-34 -84 0
-35 -85 0
-31 -116 0
-32 -117 0
-33 -118 0
-34 -119 0
-35 -120 0
-31 -221 0
-32 -222 0
-33 -223 0
-34 -224 0
-35 -225 0
-31 -226 0
-32 -227 0
-33 -228 0
-34 -229 0
-35 -230 0
-31 -231 0
-32 -232 0
-33 -233 0
-34 -234 0
-35 -235 0
-31 -241 0
-32 -242 0
-33 -243 0
-34 -244 0
-35 -245 0
-36 -116 0
-37 -117 0
-38 -118 0
-39 -119 0
-40 -120 0
-41 -141 0
-42 -142 0
-43 -143 0
-44 -144 0
-45 -145 0
-41 -231 0
-42 -232 0
-43 -233 0
-44 -234 0
-45 -235 0
-46 -51 0
-47 -52 0
-48 -53 0
-49 -54 0
-50 -55 0
-46 -61 0
-47 -62 0
-48 -63 0
-49 -64 0
-50 -65 0
-46 -141 0
-47 -142 0
-48 -143 0
-49 -144 0
-50 -145 0
-46 -146 0
-47 -147 0
-48 -148 0
-49 -149 0
-50 -150 0
-46 -181 0
-47 -182 0
-48 -183 0
-49 -184 0
-50 -185 0
-51 -76 0
-52 -77 0
-53 -78 0
-54 -79 0
-55 -80 0
-51 -111 0
-52 -112 0
-53 -113 0
-54 -114 0
-55 -115 0
-51 -136 0
-52 -137 0
-53 -138 0
-54 -139 0
-55 -140 0
-51 -161 0
-52 -162 0
-53 -163 0
-54 -164 0
-55 -165 0
-51 -166 0
-52 -167 0
-53 -168 0
-54 -169 0
-55 -170 0
-51 -231 0
-52 -232 0
-53 -233 0
-54 -234 0
-55 -235 0
-51 -236 0
-52 -237 0
-53 -238 0
-54 -239 0
-55 -240 0
-56 -61 0
-57 -62 0
-58 -63 0
-59 -64 0
-60 -65 0
-56 -91 0
-57 -92 0
-58 -93 0
-59 -94 0
-60 -95 0
-56 -126 0
-57 -127 0
-58 -128 0
-59 -129 0
-60 -130 0
-56 -151 0
-57 -152 0
-58 -153 0
-59 -154 0
-60 -155 0
-61 -121 0
-62 -122 0
-63 -123 0
-64 -124 0
-65 -125 0
-61 -151 0
-62 -152 0
-63 -153 0
-64 -154 0
-65 -155 0
-61 -161 0
-62 -162 0
-63 -163 0
-64 -164 0
-65 -165 0
-61 -186 0
-62 -187 0
-63 -188 0
-64 -189 0
-65 -190 0
-61 -201 0
-62 -202 0
-63 -203 0
-64 -204 0
-65 -205 0
-66 -86 0
-67 -87 0
-68 -88 0
-69 -89 0
-70 -90 0
-66 -156 0
-67 -157 0
-68 -158 0
-69 -159 0
-70 -160 0
-66 -161 0
-67 -162 0
-68 -163 0
-69 -164 0
-70 -165 0
-66 -191 0
-67 -192 0
-68 -193 0
-69 -194 0
-70 -195 0
-66 -231 0
-67 -232 0
-68 -233 0
-69 -234 0
-70 -235 0
-71 -76 0
-72 -77 0
-73 -78 0
-74 -79 0
-75 -80 0
-71 -136 0
-72 -137 0
-73 -138 0
-74 -139 0
-75 -140 0
-71 -146 0
-72 -147 0
-73 -148 0
-74 -149 0
-75 -150 0
-71 -196 0
-72 -197 0
-73 -198 0
-74 -199 0
-75 -200 0
-71 -216 0
-72 -217 0
-73 -218 0
-74 -219 0
-75 -220 0
-71 -236 0
-72 -237 0
-73 -238 0
-74 -239 0
-75 -240 0
-76 -86 0
-77 -87 0
-78 -88 0
-79 -89 0
-80 -90 0
-76 -116 0
-77 -117 0
-78 -118 0
-79 -119 0
-80 -120 0
-76 -131 0
-77 -132 0
-78 -133 0
-79 -134 0
-80 -135 0
-81 -96 0
-82 -97 0
-83 -98 0
-84 -99 0
-85 -100 0
-81 -146 0
-82 -147 0
-83 -148 0
-84 -149 0
-85 -150 0
-81 -156 0
-82 -157 0
-83 -158 0
-84 -159 0
-85 -160 0
-81 -161 0
-82 -162 0
-83 -163 0
-84 -164 0
-85 -165 0
-81 -241 0
-82 -242 0
-83 -243 0
-84 -244 0
-85 -245 0
-86 -131 0
-87 -132 0
-88 -133 0
-89 -134 0
-90 -135 0
-91 -126 0
-92 -127 0
-93 -128 0
-94 -129 0
-95 -130 0
-91 -156 0
-92 -157 0
-93 -158 0
-94 -159 0
-95 -160 0
-91 -231 0
-92 -232 0
-93 -233 0
-94 -234 0
-95 -235 0
-96 -116 0
-97 -117 0
-98 -118 0
-99 -119 0
-100 -120 0
-96 -136 0
-97 -137 0
-98 -138 0
-99 -139 0
-100 -140 0
-96 -156 0
-97 -157 0
-98 -158 0
-99 -159 0
-100 -160 0
-96 -176 0
-97 -177 0
-98 -178 0
-99 -179 0
-100 -180 0
-101 -146 0
-102 -147 0
-103 -148 0
-104 -149 0
-105 -150 0
-101 -226 0
-102 -227 0
-103 -228 0
-104 -229 0
-105 -230 0
-106 -116 0
-107 -117 0
-108 -118 0
-109 -119 0
-110 -120 0
-106 -121 0
-107 -122 0
-108 -123 0
-109 -124 0
-110 -125 0
-106 -146 0
-107 -147 0
-108 -148 0
-109 -149 0
-110 -150 0
-106 -151 0
-107 -152 0
-108 -153 0
-109 -154 0
-110 -155 0
-111 -171 0
-112 -172 0
-113 -173 0
-114 -174 0
-115 -175 0
-111 -186 0
-112 -187 0
-113 -188 0
-114 -189 0
-115 -190 0
-111 -231 0
-112 -232 0
-113 -233 0
-114 -234 0
-115 -235 0
-111 -246 0
-112 -247 0
-113 -248 0
-114 -249 0
-115 -250 0
-116 -126 0
-117 -127 0
-118 -128 0
-119 -129 0
-120 -130 0
-116 -136 0
-117 -137 0
-118 -138 0
-119 -139 0
-120 -140 0
-116 -171 0
-117 -172 0
-118 -173 0
-119 -174 0
-120 -175 0
-116 -236 0
-117 -237 0
-118 -238 0
-119 -239 0
-120 -240 0
-116 -241 0
-117 -242 0
-118 -243 0
-119 -244 0
-120 -245 0
-121 -151 0
-122 -152 0
-123 -153 0
-124 -154 0
-125 -155 0
-121 -156 0
-122 -157 0
-123 -158 0
-124 -159 0
-125 -160 0
-121 -166 0
-122 -167 0
-123 -168 0
-124 -169 0
-125 -170 0
-121 -186 0
-122 -187 0
-123 -188 0
-124 -189 0
-125 -190 0
-121 -191 0
-122 -192 0
-123 -193 0
-124 -194 0
-125 -195 0
-121 -211 0
-122 -212 0
-123 -213 0
-124 -214 0
-125 -215 0
-126 -246 0
-127 -247 0
-128 -248 0
-129 -249 0
-130 -250 0
-131 -141 0
-132 -142 0
-133 -143 0
-134 -144 0
-135 -145 0
-131 -146 0
-132 -147 0
-133 -148 0
-134 -149 0
-135 -150 0
-131 -156 0
-132 -157 0
-133 -158 0
-134 -159 0
-135 -160 0
-131 -171 0
-132 -172 0
-133 -173 0
-134 -174 0
-135 -175 0
-136 -246 0
-137 -247 0
-138 -248 0
-139 -249 0
-140 -250 0
-141 -171 0
-142 -172 0
-143 -173 0
-144 -174 0
-145 -175 0
-141 -206 0
-142 -207 0
-143 -208 0
-144 -209 0
-145 -210 0
-146 -226 0
-147 -227 0
-148 -228 0
-149 -229 0
-150 -230 0
-146 -231 0
-147 -232 0
-148 -233 0
-149 -234 0
-150 -235 0
-151 -161 0
-152 -162 0
-153 -163 0
-154 -164 0
-155 -165 0
-151 -191 0
-152 -192 0
-153 -193 0
-154 -194 0
-155 -195 0
-151 -196 0
-152 -197 0
-153 -198 0
-154 -199 0
-155 -200 0
-151 -201 0
-152 -202 0
-153 -203 0
-154 -204 0
-155 -205 0
-151 -221 0
-152 -222 0
-153 -223 0
-154 -224 0
-155 -225 0
-151 -246 0
-152 -247 0
-153 -248 0
-154 -249 0
-155 -250 0
-156 -176 0
-157 -177 0
-158 -178 0
-159 -179 0
-160 -180 0
-156 -181 0
-157 -182 0
-158 -183 0
-159 -184 0
-160 -185 0
-156 -216 0
-157 -217 0
-158 -218 0
-159 -219 0
-160 -220 0
-156 -221 0
-157 -222 0
-158 -223 0
-159 -224 0
-160 -225 0
-156 -236 0
-157 -237 0
-158 -238 0
-159 -239 0
-160 -240 0
-156 -241 0
-157 -242 0
-158 -243 0
-159 -244 0
-160 -245 0
-166 -226 0
-167 -227 0
-168 -228 0
-169 -229 0
-170 -230 0
-171 -231 0
-172 -232 0
-173 -233 0
-174 -234 0
-175 -235 0
-176 -191 0
-177 -192 0
-178 -193 0
-179 -194 0
-180 -195 0
-176 -216 0
-177 -217 0
-178 -218 0
-179 -219 0
-180 -220 0
-176 -226 0
-177 -227 0
-178 -228 0
-179 -229 0
-180 -230 0
-181 -196 0
-182 -197 0
-183 -198 0
-184 -199 0
-185 -200 0
-181 -246 0
-182 -247 0
-183 -248 0
-184 -249 0
-185 -250 0
-196 -246 0
-197 -247 0
-198 -248 0
-199 -249 0
-200 -250 0
-201 -206 0
-202 -207 0
-203 -208 0
-204 -209 0
-205 -210 0
-201 -226 0
-202 -227 0
-203 -228 0
-204 -229 0
-205 -230 0
-206 -221 0
-207 -222 0
-208 -223 0
-209 -224 0
-210 -225 0
-211 -216 0
-212 -217 0
-213 -218 0
-214 -219 0
-215 -220 0